246 5
10 10 10 10 10 

0 0 0 0 0 0 4 2 14 26 38 
0 0 0 0 0 0 1 3 
2 0 0 0 0 1 2 5 4 
4 0 0 0 0 2 2 9 6 
3 0 0 0 0 6 2 9 6 
3 0 0 0 0 3 1 7 
2 0 0 0 0 3 1 8 
10 0 0 0 0 2 1 10 
6 0 0 0 0 2 1 10 
7 0 0 0 0 3 2 12 11 
5 0 0 0 0 1 2 13 30 
6 0 0 0 0 2 1 13 
0 0 0 0 0 0 1 50 
0 0 0 0 0 0 3 15 20 22 
1 0 1 0 0 0 2 24 16 
3 0 4 0 0 0 1 17 
2 0 1 0 0 0 1 18 
2 0 1 0 0 0 1 19 
7 0 2 0 0 0 1 21 
6 0 3 0 0 0 2 21 95 
10 0 4 0 0 0 1 23 
2 0 4 0 0 0 1 24 
10 0 3 0 0 0 1 25 
7 0 2 0 0 0 1 25 
0 0 0 0 0 0 1 50 
0 0 0 0 0 0 3 27 29 32 
7 0 1 0 0 0 1 28 
1 0 4 0 0 0 2 36 30 
6 0 3 0 0 0 3 36 33 151 
2 0 3 0 0 0 1 31 
10 0 2 0 0 0 1 33 
9 0 3 0 0 0 1 33 
3 0 2 0 0 0 1 34 
10 0 3 0 0 0 1 35 
4 0 2 0 0 0 1 37 
9 0 2 0 0 0 1 37 
0 0 0 0 0 0 1 50 
0 0 0 0 0 0 2 39 44 
3 1 0 0 0 0 1 40 
4 1 0 0 0 0 1 41 
6 5 0 0 0 0 2 48 42 
7 2 0 0 0 0 1 43 
9 2 0 0 0 0 1 45 
4 2 0 0 0 0 1 46 
3 2 0 0 0 0 1 47 
8 1 0 0 0 0 1 47 
6 6 0 0 0 0 2 49 115 
6 3 0 0 0 0 1 49 
0 0 0 0 0 0 1 50 
0 0 0 0 0 0 4 51 63 75 87 
0 0 0 0 0 0 1 52 
7 0 0 0 1 0 2 54 53 
8 0 0 0 2 0 2 57 55 
10 0 0 0 5 0 1 55 
1 0 0 0 2 0 1 56 
4 0 0 0 1 0 1 58 
2 0 0 0 3 0 1 58 
5 0 0 0 2 0 2 59 73 
5 0 0 0 3 0 2 61 60 
7 0 0 0 3 0 1 62 
8 0 0 0 3 0 1 62 
0 0 0 0 0 0 1 99 
0 0 0 0 0 0 4 64 66 67 69 
1 0 0 1 0 0 1 65 
6 0 0 3 0 0 1 68 
6 0 0 3 0 0 1 68 
5 0 0 1 0 0 1 68 
6 0 0 2 0 0 1 70 
10 0 0 2 0 0 1 70 
3 0 0 3 0 0 2 71 145 
6 0 0 4 0 0 1 72 
3 0 0 3 0 0 1 73 
5 0 0 3 0 0 1 74 
0 0 0 0 0 0 1 99 
0 0 0 0 0 0 2 76 77 
1 0 0 0 1 0 3 81 78 96 
8 0 0 0 5 0 2 81 78 
5 0 0 0 2 0 1 79 
1 0 0 0 3 0 2 83 80 
2 0 0 0 4 0 1 82 
1 0 0 0 4 0 1 82 
10 0 0 0 1 0 1 84 
7 0 0 0 2 0 1 84 
10 0 0 0 1 0 1 85 
3 0 0 0 2 0 1 86 
0 0 0 0 0 0 1 99 
0 0 0 0 0 0 2 88 94 
3 0 0 0 1 0 1 89 
5 0 0 0 1 0 1 90 
3 0 0 0 2 0 3 96 91 158 
9 0 0 0 1 0 1 92 
10 0 0 0 3 0 1 93 
4 0 0 0 3 0 1 95 
4 0 0 0 4 0 1 97 
8 0 0 0 2 0 1 98 
4 0 0 0 2 0 1 98 
4 0 0 0 6 0 1 98 
0 0 0 0 0 0 1 99 
0 0 0 0 0 0 4 100 112 124 136 
0 0 0 0 0 0 2 101 105 
2 0 0 0 1 0 1 102 
1 0 0 0 3 0 2 109 103 
3 0 0 0 2 0 1 104 
5 0 0 0 2 0 1 106 
9 0 0 0 4 0 2 110 108 
8 0 0 0 3 0 1 107 
10 0 0 0 2 0 1 108 
2 0 0 0 2 0 2 111 216 
1 0 0 0 4 0 1 111 
10 0 0 0 2 0 1 111 
0 0 0 0 0 0 1 148 
0 0 0 0 0 0 3 113 114 116 
4 0 0 0 1 0 1 115 
5 0 0 0 1 0 1 115 
5 0 0 0 2 0 1 117 
8 0 0 0 2 0 1 117 
10 0 0 0 4 0 2 120 118 
8 0 0 0 5 0 1 119 
2 0 0 0 1 0 1 121 
2 0 0 0 3 0 1 121 
6 0 0 0 2 0 1 122 
4 0 0 0 4 0 1 123 
0 0 0 0 0 0 1 148 
0 0 0 0 0 0 3 125 131 134 
4 0 1 0 0 0 1 126 
4 0 6 0 0 0 1 127 
7 0 1 0 0 0 2 133 128 
1 0 1 0 0 0 1 129 
10 0 4 0 0 0 1 130 
6 0 1 0 0 0 1 132 
5 0 5 0 0 0 1 133 
2 0 3 0 0 0 1 135 
4 0 1 0 0 0 1 135 
7 0 2 0 0 0 1 135 
0 0 0 0 0 0 1 148 
0 0 0 0 0 0 2 137 142 
4 0 0 0 1 0 2 146 138 
1 0 0 0 1 0 1 139 
7 0 0 0 3 0 1 140 
8 0 0 0 2 0 1 141 
6 0 0 0 4 0 2 145 143 
7 0 0 0 2 0 2 145 143 
6 0 0 0 3 0 1 144 
5 0 0 0 2 0 1 147 
4 0 0 0 3 0 1 147 
6 0 0 0 4 0 1 147 
0 0 0 0 0 0 1 148 
0 0 0 0 0 0 4 149 161 173 185 
0 0 0 0 0 0 2 150 156 
9 0 0 0 1 0 2 159 151 
1 0 0 0 3 0 1 152 
5 0 0 0 3 0 2 158 153 
5 0 0 0 2 0 1 154 
1 0 0 0 3 0 1 155 
1 0 0 0 2 0 1 157 
6 0 0 0 3 0 1 157 
7 0 0 0 3 0 1 160 
9 0 0 0 2 0 1 160 
1 0 0 0 3 0 1 160 
0 0 0 0 0 0 1 197 
0 0 0 0 0 0 3 162 166 170 
5 1 0 0 0 0 1 163 
2 5 0 0 0 0 2 169 164 
2 2 0 0 0 0 1 165 
4 2 0 0 0 0 1 167 
1 2 0 0 0 0 1 167 
4 2 0 0 0 0 1 168 
5 2 0 0 0 0 1 171 
10 1 0 0 0 0 1 171 
7 3 0 0 0 0 1 171 
2 5 0 0 0 0 1 172 
0 0 0 0 0 0 1 197 
0 0 0 0 0 0 1 174 
6 1 0 0 0 0 2 180 175 
8 2 0 0 0 0 1 176 
3 1 0 0 0 0 2 183 177 
9 4 0 0 0 0 2 182 178 
10 2 0 0 0 0 1 179 
3 1 0 0 0 0 1 181 
5 1 0 0 0 0 1 182 
3 6 0 0 0 0 1 184 
8 2 0 0 0 0 1 184 
1 5 0 0 0 0 1 184 
0 0 0 0 0 0 1 197 
0 0 0 0 0 0 2 186 187 
2 0 0 0 0 1 2 189 188 
8 0 0 0 0 1 2 189 188 
6 0 0 0 0 3 1 190 
1 0 0 0 0 3 1 190 
10 0 0 0 0 3 1 191 
10 0 0 0 0 3 2 193 192 
1 0 0 0 0 2 1 194 
7 0 0 0 0 2 1 194 
4 0 0 0 0 4 1 195 
2 0 0 0 0 3 1 196 
0 0 0 0 0 0 1 197 
0 0 0 0 0 0 4 198 210 222 234 
0 0 0 0 0 0 2 199 200 
2 0 0 0 0 1 2 205 201 
3 0 0 0 0 2 2 205 203 
1 0 0 0 0 2 1 202 
3 0 0 0 0 3 1 203 
3 0 0 0 0 4 2 208 204 
2 0 0 0 0 1 1 206 
3 0 0 0 0 4 1 206 
3 0 0 0 0 3 1 207 
4 0 0 0 0 1 1 209 
1 0 0 0 0 4 1 209 
0 0 0 0 0 0 1 246 
0 0 0 0 0 0 1 211 
3 0 0 1 0 0 3 220 217 212 
6 0 0 1 0 0 1 213 
10 0 0 4 0 0 1 214 
1 0 0 2 0 0 2 219 215 
9 0 0 2 0 0 1 216 
10 0 0 4 0 0 1 218 
7 0 0 4 0 0 1 219 
2 0 0 1 0 0 1 221 
10 0 0 3 0 0 1 221 
2 0 0 3 0 0 1 221 
0 0 0 0 0 0 1 246 
0 0 0 0 0 0 2 223 225 
2 0 0 0 1 0 1 224 
5 0 0 0 3 0 1 226 
2 0 0 0 4 0 1 226 
6 0 0 0 3 0 1 227 
9 0 0 0 2 0 3 232 231 228 
3 0 0 0 1 0 1 229 
6 0 0 0 2 0 1 230 
1 0 0 0 3 0 1 233 
8 0 0 0 3 0 1 233 
1 0 0 0 3 0 1 233 
0 0 0 0 0 0 1 246 
0 0 0 0 0 0 1 235 
1 0 0 0 1 0 2 239 236 
3 0 0 0 5 0 1 237 
5 0 0 0 3 0 2 244 238 
8 0 0 0 1 0 2 243 240 
9 0 0 0 4 0 2 244 243 
1 0 0 0 2 0 1 241 
9 0 0 0 2 0 1 242 
10 0 0 0 4 0 1 245 
1 0 0 0 2 0 1 245 
6 0 0 0 1 0 1 245 
0 0 0 0 0 0 1 246 
0 0 0 0 0 0 0 
